(declare-const a Real)
(declare-const b Real)
(declare-const c Real)
(assert (= (+ a b c) 3))
(assert (not (<= (+ (* -1 (pow c 2)) (* a b) (* a c) (* b c) (* -1 (pow (+ 1 (pow a 2)) -1) (pow (+ b (pow a 2)) 2))) 0)))
(check-sat)
(get-model)
(exit)